p cnf 30 182
1 2 0
-1 3 0
4 5 6 7 8 9 10 1 11 0
4 5 6 7 8 9 10 -1 20 0
4 5 6 7 8 9 -10 1 24 0
4 5 6 7 8 9 -10 -1 11 0
4 5 6 7 8 -9 10 1 24 0
4 5 6 7 8 -9 10 -1 11 0
4 5 6 7 8 -9 -10 1 24 0
4 5 6 7 8 -9 -10 -1 16 0
4 5 6 7 -8 9 10 1 11 0
4 5 6 7 -8 9 10 -1 16 0
4 5 6 7 -8 9 -10 1 13 0
4 5 6 7 -8 9 -10 -1 11 0
4 5 6 7 -8 -9 10 1 13 0
4 5 6 7 -8 -9 10 -1 20 0
4 5 6 7 -8 -9 -10 1 11 0
4 5 6 7 -8 -9 -10 -1 16 0
4 5 6 -7 8 9 10 1 13 0
4 5 6 -7 8 9 10 -1 16 0
4 5 6 -7 8 9 -10 1 11 0
4 5 6 -7 8 9 -10 -1 20 0
4 5 6 -7 8 -9 10 1 24 0
4 5 6 -7 8 -9 10 -1 22 0
4 5 6 -7 8 -9 -10 1 11 0
4 5 6 -7 8 -9 -10 -1 16 0
4 5 6 -7 -8 9 10 1 13 0
4 5 6 -7 -8 9 10 -1 11 0
4 5 6 -7 -8 9 -10 1 27 0
4 5 6 -7 -8 9 -10 -1 20 0
4 5 6 -7 -8 -9 10 1 13 0
4 5 6 -7 -8 -9 10 -1 20 0
4 5 6 -7 -8 -9 -10 1 27 0
4 5 6 -7 -8 -9 -10 -1 16 0
4 5 -6 7 8 9 10 1 24 0
4 5 -6 7 8 9 10 -1 16 0
4 5 -6 7 8 9 -10 1 27 0
4 5 -6 7 8 9 -10 -1 22 0
4 5 -6 7 8 -9 10 1 13 0
4 5 -6 7 8 -9 10 -1 16 0
4 5 -6 7 8 -9 -10 1 24 0
4 5 -6 7 8 -9 -10 -1 29 0
4 5 -6 7 -8 9 10 1 28 0
4 5 -6 7 -8 9 10 -1 16 0
4 5 -6 7 -8 9 -10 1 27 0
4 5 -6 7 -8 9 -10 -1 11 0
4 5 -6 7 -8 -9 10 1 27 0
4 5 -6 7 -8 -9 10 -1 12 0
4 5 -6 7 -8 -9 -10 1 24 0
4 5 -6 7 -8 -9 -10 -1 26 0
4 5 -6 -7 8 9 10 1 17 0
4 5 -6 -7 8 9 10 -1 14 0
4 5 -6 -7 8 9 -10 1 30 0
4 5 -6 -7 8 9 -10 -1 22 0
4 5 -6 -7 8 -9 10 1 27 0
4 5 -6 -7 8 -9 10 -1 12 0
4 5 -6 -7 8 -9 -10 1 27 0
4 5 -6 -7 8 -9 -10 -1 12 0
4 5 -6 -7 -8 9 10 1 13 0
4 5 -6 -7 -8 9 10 -1 22 0
4 5 -6 -7 -8 9 -10 1 24 0
4 5 -6 -7 -8 9 -10 -1 22 0
4 5 -6 -7 -8 -9 10 1 27 0
4 5 -6 -7 -8 -9 10 -1 16 0
4 5 -6 -7 -8 -9 -10 1 24 0
4 5 -6 -7 -8 -9 -10 -1 29 0
4 -5 6 7 8 9 10 1 27 0
4 -5 6 7 8 9 10 -1 26 0
4 -5 6 7 8 9 -10 1 24 0
4 -5 6 7 8 9 -10 -1 12 0
4 -5 6 7 8 -9 10 1 27 0
4 -5 6 7 8 -9 10 -1 19 0
4 -5 6 7 8 -9 -10 1 24 0
4 -5 6 7 8 -9 -10 -1 29 0
4 -5 6 7 -8 9 10 1 27 0
4 -5 6 7 -8 9 10 -1 26 0
4 -5 6 7 -8 9 -10 1 11 0
4 -5 6 7 -8 9 -10 -1 22 0
4 -5 6 7 -8 -9 10 1 27 0
4 -5 6 7 -8 -9 10 -1 23 0
4 -5 6 7 -8 -9 -10 1 13 0
4 -5 6 7 -8 -9 -10 -1 26 0
4 -5 6 -7 8 9 10 1 24 0
4 -5 6 -7 8 9 10 -1 26 0
4 -5 6 -7 8 9 -10 1 24 0
4 -5 6 -7 8 9 -10 -1 14 0
4 -5 6 -7 8 -9 10 1 13 0
4 -5 6 -7 8 -9 10 -1 25 0
4 -5 6 -7 8 -9 -10 1 27 0
4 -5 6 -7 8 -9 -10 -1 14 0
4 -5 6 -7 -8 9 10 1 21 0
4 -5 6 -7 -8 9 10 -1 14 0
4 -5 6 -7 -8 9 -10 1 24 0
4 -5 6 -7 -8 9 -10 -1 29 0
4 -5 6 -7 -8 -9 10 1 24 0
4 -5 6 -7 -8 -9 10 -1 12 0
4 -5 6 -7 -8 -9 -10 1 11 0
4 -5 6 -7 -8 -9 -10 -1 14 0
4 -5 -6 7 8 9 10 1 24 0
4 -5 -6 7 8 9 10 -1 12 0
4 -5 -6 7 8 9 -10 1 24 0
4 -5 -6 7 8 9 -10 -1 12 0
4 -5 -6 7 8 -9 10 1 11 0
4 -5 -6 7 8 -9 10 -1 23 0
4 -5 -6 7 8 -9 -10 1 13 0
4 -5 -6 7 8 -9 -10 -1 12 0
4 -5 -6 7 -8 9 10 1 11 0
4 -5 -6 7 -8 9 10 -1 19 0
4 -5 -6 7 -8 9 -10 1 11 0
4 -5 -6 7 -8 9 -10 -1 15 0
4 -5 -6 7 -8 -9 10 1 13 0
4 -5 -6 7 -8 -9 10 -1 29 0
4 -5 -6 7 -8 -9 -10 1 24 0
4 -5 -6 7 -8 -9 -10 -1 25 0
4 -5 -6 -7 8 9 10 1 11 0
4 -5 -6 -7 8 9 10 -1 18 0
4 -5 -6 -7 8 9 -10 1 27 0
4 -5 -6 -7 8 9 -10 -1 29 0
4 -5 -6 -7 8 -9 10 1 24 0
4 -5 -6 -7 8 -9 10 -1 19 0
4 -5 -6 -7 8 -9 -10 1 24 0
4 -5 -6 -7 8 -9 -10 -1 14 0
4 -5 -6 -7 -8 9 10 1 11 0
4 -5 -6 -7 -8 9 10 -1 12 0
4 -5 -6 -7 -8 9 -10 1 11 0
4 -5 -6 -7 -8 9 -10 -1 23 0
4 -5 -6 -7 -8 -9 10 1 11 0
4 -5 -6 -7 -8 -9 10 -1 12 0
4 -5 -6 -7 -8 -9 -10 1 11 0
4 -5 -6 -7 -8 -9 -10 -1 20 0
-4 5 6 7 8 9 10 1 11 0
-4 5 6 7 8 9 10 -1 29 0
-4 5 6 7 8 9 -10 1 11 0
-4 5 6 7 8 9 -10 -1 12 0
-4 5 6 7 8 -9 10 1 24 0
-4 5 6 7 8 -9 10 -1 12 0
-4 5 6 7 8 -9 -10 1 11 0
-4 5 6 7 8 -9 -10 -1 16 0
-4 5 6 7 -8 9 10 1 11 0
-4 5 6 7 -8 9 10 -1 29 0
-4 5 6 7 -8 9 -10 1 24 0
-4 5 6 7 -8 9 -10 -1 26 0
-4 5 6 7 -8 -9 10 1 11 0
-4 5 6 7 -8 -9 10 -1 20 0
-4 5 6 7 -8 -9 -10 1 11 0
-4 5 6 7 -8 -9 -10 -1 29 0
-4 5 6 -7 8 9 10 1 11 0
-4 5 6 -7 8 9 10 -1 26 0
-4 5 6 -7 8 9 -10 1 11 0
-4 5 6 -7 8 9 -10 -1 26 0
-4 5 6 -7 8 -9 10 1 11 0
-4 5 6 -7 8 -9 10 -1 12 0
-4 5 6 -7 8 -9 -10 1 11 0
-4 5 6 -7 8 -9 -10 -1 26 0
-4 5 6 -7 -8 9 10 1 11 0
-4 5 6 -7 -8 9 10 -1 22 0
-4 5 6 -7 -8 9 -10 1 11 0
-4 5 6 -7 -8 9 -10 -1 26 0
-4 5 6 -7 -8 -9 10 1 24 0
-4 5 6 -7 -8 -9 10 -1 26 0
-4 5 6 -7 -8 -9 -10 1 11 0
-4 5 6 -7 -8 -9 -10 -1 26 0
-4 5 -6 7 8 9 10 1 11 0
-4 5 -6 7 8 9 10 -1 26 0
-4 5 -6 7 8 9 -10 1 11 0
-4 5 -6 7 8 9 -10 -1 20 0
-4 5 -6 7 8 -9 10 1 11 0
-4 5 -6 7 8 -9 10 -1 20 0
-4 5 -6 7 8 -9 -10 1 11 0
-4 5 -6 7 8 -9 -10 -1 14 0
-4 5 -6 7 -8 9 10 1 11 0
-4 5 -6 7 -8 9 10 -1 22 0
-4 5 -6 7 -8 9 -10 1 11 0
-4 5 -6 7 -8 9 -10 -1 20 0
-4 5 -6 7 -8 -9 10 1 11 0
-4 5 -6 7 -8 -9 10 -1 22 0
-4 5 -6 7 -8 -9 -10 1 11 0
-4 5 -6 7 -8 -9 -10 -1 20 0
-4 5 -6 -7 8 9 10 1 11 0
-4 5 -6 -7 8 9 10 -1 20 0
-4 5 -6 -7 8 9 -10 1 11 0
-4 5 -6 -7 8 9 -10 -1 26 0
